solution status: optimal solution found
objective value:                     191408.575237297
d11(0,0)                                            1 	(obj:0)
d11(1,1)                                            1 	(obj:0)
d11(2,3)                                            1 	(obj:0)
d11(2,5)                                            1 	(obj:0)
d11(3,7)                                            1 	(obj:0)
d11(3,9)                                            1 	(obj:0)
d11(3,11)                                           1 	(obj:0)
d11(3,13)                                           1 	(obj:0)
d11(4,15)                                           1 	(obj:0)
d11(4,16)                                           1 	(obj:0)
d11(4,17)                                           1 	(obj:0)
d11(4,19)                                           1 	(obj:0)
d11(4,21)                                           1 	(obj:0)
d11(4,23)                                           1 	(obj:0)
d11(4,24)                                           1 	(obj:0)
d11(4,25)                                           1 	(obj:0)
d11(4,26)                                           1 	(obj:0)
d11(4,27)                                           1 	(obj:0)
d11(4,29)                                           1 	(obj:0)
d11(5,31)                                           1 	(obj:0)
d11(5,32)                                           1 	(obj:0)
d11(5,33)                                           1 	(obj:0)
d11(5,35)                                           1 	(obj:0)
d11(5,36)                                           1 	(obj:0)
d11(5,37)                                           1 	(obj:0)
d11(5,38)                                           1 	(obj:0)
d11(5,39)                                           1 	(obj:0)
d11(5,40)                                           1 	(obj:0)
d11(5,41)                                           1 	(obj:0)
d11(5,43)                                           1 	(obj:0)
d11(5,44)                                           1 	(obj:0)
d11(5,45)                                           1 	(obj:0)
d11(5,46)                                           1 	(obj:0)
d11(5,47)                                           1 	(obj:0)
d11(5,49)                                           1 	(obj:0)
d11(5,51)                                           1 	(obj:0)
d11(5,53)                                           1 	(obj:0)
d11(5,55)                                           1 	(obj:0)
d11(5,56)                                           1 	(obj:0)
d11(5,57)                                           1 	(obj:0)
d11(5,58)                                           1 	(obj:0)
d11(5,59)                                           1 	(obj:0)
d11(5,61)                                           1 	(obj:0)
d11(6,63)                            1.00000000000001 	(obj:0)
d11(6,65)                            1.00000000000001 	(obj:0)
d11(6,67)                            1.00000000000001 	(obj:0)
d11(6,69)                            1.00000000000001 	(obj:0)
d11(6,71)                            1.00000000000001 	(obj:0)
d11(6,73)                            1.00000000000001 	(obj:0)
d11(6,75)                                           1 	(obj:0)
d11(6,77)                                           1 	(obj:0)
d11(6,79)                            1.00000000000001 	(obj:0)
d11(6,81)                            1.00000000000001 	(obj:0)
d11(6,83)                            1.00000000000001 	(obj:0)
d11(6,85)                                           1 	(obj:0)
d11(6,87)                                           1 	(obj:0)
d11(6,89)                                           1 	(obj:0)
d11(6,91)                            1.00000000000001 	(obj:0)
d11(6,93)                            1.00000000000001 	(obj:0)
d11(6,95)                            1.00000000000001 	(obj:0)
d11(6,97)                            1.00000000000001 	(obj:0)
d11(6,99)                            1.00000000000001 	(obj:0)
d11(6,101)                                          1 	(obj:0)
d11(6,103)                           1.00000000000001 	(obj:0)
d11(6,105)                                          1 	(obj:0)
d11(6,107)                                          1 	(obj:0)
d11(6,109)                                          1 	(obj:0)
d11(6,111)                                          1 	(obj:0)
d11(6,115)                                          1 	(obj:0)
d11(6,117)                           1.00000000000001 	(obj:0)
d11(6,119)                                          1 	(obj:0)
d11(6,121)                           1.00000000000001 	(obj:0)
d11(6,123)                           1.00000000000001 	(obj:0)
d12(1,2)                                            1 	(obj:0)
d12(2,4)                                            1 	(obj:0)
d12(2,6)                                            1 	(obj:0)
d12(3,8)                                            1 	(obj:0)
d12(3,10)                                           1 	(obj:0)
d12(3,12)                                           1 	(obj:0)
d12(3,14)                                           1 	(obj:0)
d12(6,64)                                           1 	(obj:0)
d12(6,66)                                           1 	(obj:0)
d12(6,68)                                           1 	(obj:0)
d12(6,70)                                           1 	(obj:0)
d12(6,72)                                           1 	(obj:0)
d12(6,74)                                           1 	(obj:0)
d12(6,76)                                           1 	(obj:0)
d12(6,78)                                           1 	(obj:0)
d12(6,80)                                           1 	(obj:0)
d12(6,82)                                           1 	(obj:0)
d12(6,84)                                           1 	(obj:0)
d12(6,86)                                           1 	(obj:0)
d12(6,88)                                           1 	(obj:0)
d12(6,90)                                           1 	(obj:0)
d12(6,92)                                           1 	(obj:0)
d12(6,94)                                           1 	(obj:0)
d12(6,96)                                           1 	(obj:0)
d12(6,98)                                           1 	(obj:0)
d12(6,100)                                          1 	(obj:0)
d12(6,102)                                          1 	(obj:0)
d12(6,104)                                          1 	(obj:0)
d12(6,106)                                          1 	(obj:0)
d12(6,108)                                          1 	(obj:0)
d12(6,110)                                          1 	(obj:0)
d12(6,112)                                          1 	(obj:0)
d12(6,114)                                          1 	(obj:0)
d12(6,116)                                          1 	(obj:0)
d12(6,118)                                          1 	(obj:0)
d12(6,120)                                          1 	(obj:0)
d12(6,122)                                          1 	(obj:0)
d12(6,124)                                          1 	(obj:0)
d12(6,126)                                          1 	(obj:0)
d21(4,15)                                           1 	(obj:0)
d21(5,31)                                           1 	(obj:0)
d21(5,32)                                           1 	(obj:0)
d21(5,33)                                           1 	(obj:0)
d21(5,34)                                           1 	(obj:0)
d21(5,35)                                           1 	(obj:0)
d21(5,36)                                           1 	(obj:0)
d21(5,37)                                           1 	(obj:0)
d21(5,39)                                           1 	(obj:0)
d21(5,40)                                           1 	(obj:0)
d21(5,41)                                           1 	(obj:0)
d21(5,43)                                           1 	(obj:0)
d21(5,47)                                           1 	(obj:0)
d21(5,48)                                           1 	(obj:0)
d21(5,49)                                           1 	(obj:0)
d21(5,51)                                           1 	(obj:0)
d21(5,55)                                           1 	(obj:0)
d21(6,63)                                           1 	(obj:0)
d21(6,64)                                           1 	(obj:0)
d21(6,65)                                           1 	(obj:0)
d21(6,66)                                           1 	(obj:0)
d21(6,67)                                           1 	(obj:0)
d21(6,68)                                           1 	(obj:0)
d21(6,69)                                           1 	(obj:0)
d21(6,70)                                           1 	(obj:0)
d21(6,71)                                           1 	(obj:0)
d21(6,72)                                           1 	(obj:0)
d21(6,73)                                           1 	(obj:0)
d21(6,74)                                           1 	(obj:0)
d21(6,75)                                           1 	(obj:0)
d21(6,76)                                           1 	(obj:0)
d21(6,79)                                           1 	(obj:0)
d21(6,80)                                           1 	(obj:0)
d21(6,81)                                           1 	(obj:0)
d21(6,82)                                           1 	(obj:0)
d21(6,83)                                           1 	(obj:0)
d21(6,84)                                           1 	(obj:0)
d21(6,85)                                           1 	(obj:0)
d21(6,87)                                           1 	(obj:0)
d21(6,88)                                           1 	(obj:0)
d21(6,89)                                           1 	(obj:0)
d21(6,91)                                           1 	(obj:0)
d21(6,95)                                           1 	(obj:0)
d21(6,96)                                           1 	(obj:0)
d21(6,97)                                           1 	(obj:0)
d21(6,98)                                           1 	(obj:0)
d21(6,99)                                           1 	(obj:0)
d21(6,100)                                          1 	(obj:0)
d21(6,103)                                          1 	(obj:0)
d21(6,104)                                          1 	(obj:0)
d21(6,105)                                          1 	(obj:0)
d21(6,107)                                          1 	(obj:0)
d21(6,111)                                          1 	(obj:0)
d21(6,112)                                          1 	(obj:0)
d21(6,113)                                          1 	(obj:0)
d21(6,115)                                          1 	(obj:0)
d21(6,119)                                          1 	(obj:0)
y2(6,100)                            1385.48851146276 	(obj:0)
y2(6,102)                            1385.48851146276 	(obj:0)
y2(6,104)                            1385.48851146276 	(obj:0)
y2(6,106)                            1385.48851146276 	(obj:0)
y2(6,108)                            1385.48851146276 	(obj:0)
y2(6,110)                            1385.48851146276 	(obj:0)
y2(6,112)                            1385.48851146276 	(obj:0)
y2(6,114)                            1385.48851146276 	(obj:0)
y2(6,116)                            1385.48851146276 	(obj:0)
y2(6,118)                            1385.48851146276 	(obj:0)
y2(6,120)                            1385.48851146276 	(obj:0)
y2(6,122)                            1385.48851146276 	(obj:0)
y2(6,124)                            1385.48851146276 	(obj:0)
y2(6,126)                            1385.48851146276 	(obj:0)
STE(1,1)                             14460.2554915105 	(obj:0)
STE(0,0)                                        15750 	(obj:0)
STE(1,2)                             15779.7445084747 	(obj:0)
STE(2,3)                             13200.2554915105 	(obj:0)
STE(2,4)                             14516.4695773869 	(obj:0)
STE(2,5)                             14519.7445084747 	(obj:0)
STE(2,6)                             15835.9585943512 	(obj:0)
STE(3,7)                              11910.510983021 	(obj:0)
STE(3,8)                             13229.9999999853 	(obj:0)
STE(3,9)                             13226.7250688975 	(obj:0)
STE(3,10)                            14546.2140858617 	(obj:0)
STE(3,11)                            13229.9999999853 	(obj:0)
STE(3,12)                            14549.4890169495 	(obj:0)
STE(3,13)                            14546.2140858617 	(obj:0)
STE(3,14)                             15865.703102826 	(obj:0)
STE(4,15)                            8992.26108413215 	(obj:0)
STE(4,16)                             10650.510983021 	(obj:0)
STE(4,17)                            10311.7501010964 	(obj:0)
STE(4,18)                            11969.9999999853 	(obj:0)
STE(4,19)                            10308.4751700087 	(obj:0)
STE(4,20)                            11966.7250688975 	(obj:0)
STE(4,21)                            11627.9641869729 	(obj:0)
STE(4,22)                            13286.2140858617 	(obj:0)
STE(4,23)                            10311.7501010964 	(obj:0)
STE(4,24)                            11969.9999999853 	(obj:0)
STE(4,25)                            11631.2391180607 	(obj:0)
STE(4,26)                            13289.4890169495 	(obj:0)
STE(4,27)                            11627.9641869729 	(obj:0)
STE(4,28)                            13286.2140858617 	(obj:0)
STE(4,29)                            12947.4532039372 	(obj:0)
STE(4,30)                             14605.703102826 	(obj:0)
STE(5,31)                            6074.01118524331 	(obj:0)
STE(5,32)                            7732.26108413212 	(obj:0)
STE(5,33)                            7732.26108413213 	(obj:0)
STE(5,34)                            9390.51098302097 	(obj:0)
STE(5,35)                            7393.50020220759 	(obj:0)
STE(5,36)                            9051.75010109644 	(obj:0)
STE(5,37)                            9051.75010109642 	(obj:0)
STE(5,38)                            10709.9999999853 	(obj:0)
STE(5,39)                            7390.22527111983 	(obj:0)
STE(5,40)                            9048.47517000865 	(obj:0)
STE(5,41)                            9048.47517000865 	(obj:0)
STE(5,42)                            10706.7250688975 	(obj:0)
STE(5,43)                            8709.71428808406 	(obj:0)
STE(5,44)                            10367.9641869729 	(obj:0)
STE(5,45)                            10367.9641869729 	(obj:0)
STE(5,46)                            12026.2140858617 	(obj:0)
STE(5,47)                             7393.5002022076 	(obj:0)
STE(5,48)                            9051.75010109645 	(obj:0)
STE(5,49)                            9051.75010109642 	(obj:0)
STE(5,50)                            10709.9999999853 	(obj:0)
STE(5,51)                            8712.98921917184 	(obj:0)
STE(5,52)                            10371.2391180607 	(obj:0)
STE(5,53)                            10371.2391180607 	(obj:0)
STE(5,54)                            12029.4890169495 	(obj:0)
STE(5,55)                            8709.71428808404 	(obj:0)
STE(5,56)                            10367.9641869729 	(obj:0)
STE(5,57)                            10367.9641869729 	(obj:0)
STE(5,58)                            12026.2140858617 	(obj:0)
STE(5,59)                            10029.2033050483 	(obj:0)
STE(5,60)                            11687.4532039372 	(obj:0)
STE(5,61)                            11687.4532039371 	(obj:0)
STE(5,62)                             13345.703102826 	(obj:0)
STE(6,63)                            4814.01118524331 	(obj:0)
STE(6,64)                            6130.22527113293 	(obj:0)
STE(6,65)                            6472.26108413212 	(obj:0)
STE(6,66)                            7788.47517002174 	(obj:0)
STE(6,67)                            6472.26108413213 	(obj:0)
STE(6,68)                            7788.47517002174 	(obj:0)
STE(6,69)                            8130.51098302097 	(obj:0)
STE(6,70)                            9446.72506891059 	(obj:0)
STE(6,71)                            6133.50020220759 	(obj:0)
STE(6,72)                            7449.71428809721 	(obj:0)
STE(6,73)                            7791.75010109644 	(obj:0)
STE(6,74)                            9107.96418698606 	(obj:0)
STE(6,75)                            7791.75010111115 	(obj:0)
STE(6,76)                            9107.96418698604 	(obj:0)
STE(6,77)                                        9450 	(obj:0)
STE(6,78)                            10766.2140858749 	(obj:0)
STE(6,79)                            6130.22527111983 	(obj:0)
STE(6,80)                            7446.43935700945 	(obj:0)
STE(6,81)                            7788.47517000865 	(obj:0)
STE(6,82)                            9104.68925589827 	(obj:0)
STE(6,83)                            7788.47517000865 	(obj:0)
STE(6,84)                            9104.68925589827 	(obj:0)
STE(6,85)                            9446.72506891221 	(obj:0)
STE(6,86)                            10762.9391547871 	(obj:0)
STE(6,87)                             7449.7142880988 	(obj:0)
STE(6,88)                            8765.92837397368 	(obj:0)
STE(6,89)                            9107.96418698761 	(obj:0)
STE(6,90)                            10424.1782728625 	(obj:0)
STE(6,91)                            9107.96418697289 	(obj:0)
STE(6,92)                            10424.1782728625 	(obj:0)
STE(6,93)                            10766.2140858617 	(obj:0)
STE(6,94)                            12082.4281717514 	(obj:0)
STE(6,95)                             6133.5002022076 	(obj:0)
STE(6,96)                            7449.71428809722 	(obj:0)
STE(6,97)                            7791.75010109645 	(obj:0)
STE(6,98)                            9107.96418698607 	(obj:0)
STE(6,99)                            7791.75010109642 	(obj:0)
STE(6,100)                           9107.96418698604 	(obj:0)
STE(6,101)                                       9450 	(obj:0)
STE(6,102)                           10766.2140858749 	(obj:0)
STE(6,103)                           7452.98921917184 	(obj:0)
STE(6,104)                           8769.20330506146 	(obj:0)
STE(6,105)                           9111.23911807542 	(obj:0)
STE(6,106)                           10427.4532039503 	(obj:0)
STE(6,107)                           9111.23911807539 	(obj:0)
STE(6,108)                           10427.4532039503 	(obj:0)
STE(6,109)                           10769.4890169642 	(obj:0)
STE(6,110)                           12085.7031028391 	(obj:0)
STE(6,111)                           7449.71428809877 	(obj:0)
STE(6,112)                           8765.92837397366 	(obj:0)
STE(6,113)                           9107.96418697285 	(obj:0)
STE(6,114)                           10424.1782728625 	(obj:0)
STE(6,115)                           9107.96418698757 	(obj:0)
STE(6,116)                           10424.1782728625 	(obj:0)
STE(6,117)                           10766.2140858617 	(obj:0)
STE(6,118)                           12082.4281717513 	(obj:0)
STE(6,119)                           8769.20330506302 	(obj:0)
STE(6,120)                           10085.4173909379 	(obj:0)
STE(6,121)                           10427.4532039372 	(obj:0)
STE(6,122)                           11743.6672898268 	(obj:0)
STE(6,123)                           10427.4532039371 	(obj:0)
STE(6,124)                           11743.6672898268 	(obj:0)
STE(6,125)                            12085.703102826 	(obj:0)
STE(6,126)                           13401.9171887156 	(obj:0)
y1(6,101)                        -1.32620334625244e-008 	(obj:0)
y1(6,105)                        -1.32620334625244e-008 	(obj:0)
y1(6,107)                        -1.32620334625244e-008 	(obj:0)
y1(6,109)                        -1.32620334625244e-008 	(obj:0)
y1(6,111)                        -1.32620334625244e-008 	(obj:0)
y1(6,115)                        -1.32363618758121e-008 	(obj:0)
y1(6,119)                        -1.32363618758121e-008 	(obj:0)
BG(5)                                723.522421037921 	(obj:10)
BG(6)                            -1.35326872066576e-008 	(obj:10)
WB(1)                                 558.82545155195 	(obj:0)
AVE(1)                               3259.55177567504 	(obj:0)
WB(2)                                586.145949266141 	(obj:0)
AVE(2)                               3259.55588804169 	(obj:0)
WB(3)                                 878.63532796868 	(obj:0)
AVE(3)                               3579.36165209166 	(obj:0)
AVE(4)                               3579.36576445831 	(obj:0)
AVE(5)                               3472.77007794174 	(obj:0)
WB(6)                                 372.95195629129 	(obj:0)
AVE(6)                                3046.3618950668 	(obj:0)
WG(1)                                2700.72632412309 	(obj:10)
WG(2)                                2673.40993877555 	(obj:10)
WG(3)                                2700.72632412298 	(obj:10)
WG(4)                                3579.36576445831 	(obj:10)
WG(5)                                3472.77007794167 	(obj:10)
WG(6)                                2673.40993877551 	(obj:10)
BG(4)                                616.926734521282 	(obj:10)
y1(1,1)                              26.7700576405902 	(obj:0)
y1(3,7)                              26.7700576405278 	(obj:0)
y1(3,9)                              26.7700576404818 	(obj:0)
y1(3,11)                             26.7700576404816 	(obj:0)
y1(3,13)                             26.7700576405151 	(obj:0)
y1(4,15)                             1492.42490899994 	(obj:0)
y1(4,17)                             1492.42490899994 	(obj:0)
y1(4,19)                             1492.42490899994 	(obj:0)
y1(4,21)                             1492.42490899994 	(obj:0)
y1(4,23)                             1492.42490899994 	(obj:0)
y1(4,25)                             1492.42490899994 	(obj:0)
y1(4,27)                             1492.42490899994 	(obj:0)
y1(4,29)                             1492.42490899994 	(obj:0)
y1(5,31)                             1492.42490899996 	(obj:0)
y1(5,33)                             1492.42490899996 	(obj:0)
y1(5,35)                             1492.42490899996 	(obj:0)
y1(5,37)                             1492.42490899996 	(obj:0)
y1(5,39)                             1492.42490899996 	(obj:0)
y1(5,41)                             1492.42490899996 	(obj:0)
y1(5,43)                             1492.42490899996 	(obj:0)
y1(5,45)                             1492.42490899996 	(obj:0)
y1(5,47)                             1492.42490899996 	(obj:0)
y1(5,49)                             1492.42490899996 	(obj:0)
y1(5,51)                             1492.42490899996 	(obj:0)
y1(5,53)                             1492.42490899996 	(obj:0)
y1(5,55)                             1492.42490899996 	(obj:0)
y1(5,57)                             1492.42490899996 	(obj:0)
y1(5,59)                             1492.42490899996 	(obj:0)
y1(5,61)                             1492.42490899996 	(obj:0)
y1(6,75)                         -1.32620334625244e-008 	(obj:0)
y1(6,77)                         -1.32620334625244e-008 	(obj:0)
y1(6,85)                         -1.32363618758121e-008 	(obj:0)
y1(6,87)                         -1.32620334625244e-008 	(obj:0)
y1(6,89)                         -1.32620334625244e-008 	(obj:0)
y2(1,2)                              1357.62579839442 	(obj:0)
y2(2,4)                              1385.48851144891 	(obj:0)
y2(2,6)                              1385.48851144891 	(obj:0)
y2(3,8)                              1357.62579839453 	(obj:0)
y2(3,10)                             1357.62579839453 	(obj:0)
y2(3,12)                             1357.62579839453 	(obj:0)
y2(3,14)                             1357.62579839453 	(obj:0)
y2(6,64)                             1385.48851146276 	(obj:0)
y2(6,66)                             1385.48851146276 	(obj:0)
y2(6,68)                             1385.48851146276 	(obj:0)
y2(6,70)                             1385.48851146276 	(obj:0)
y2(6,72)                             1385.48851146276 	(obj:0)
y2(6,74)                             1385.48851146276 	(obj:0)
y2(6,76)                             1385.48851146276 	(obj:0)
y2(6,78)                             1385.48851146276 	(obj:0)
y2(6,80)                             1385.48851146276 	(obj:0)
y2(6,82)                             1385.48851146276 	(obj:0)
y2(6,84)                             1385.48851146276 	(obj:0)
y2(6,86)                             1385.48851146276 	(obj:0)
y2(6,88)                             1385.48851146276 	(obj:0)
y2(6,90)                             1385.48851146276 	(obj:0)
y2(6,92)                             1385.48851146276 	(obj:0)
y2(6,94)                             1385.48851146276 	(obj:0)
y2(6,96)                             1385.48851146276 	(obj:0)
y2(6,98)                             1385.48851146276 	(obj:0)
